NAME : rnd_20-50-5-15-12345-12345-12345-12345-12345-12345
COMMENT : (random instance by EGlib)
TYPE : CVRP
DIMENSION : 20
EDGE_WEIGHT_TYPE : EUC_2D
CAPACITY : 50
NODE_COORD_SECTION
1 6 3
2 17 6
3 11 4
4 7 10
5 15 3
6 8 12
7 5 7
8 18 12
9 1 6
10 3 19
11 4 15
12 4 2
13 4 14
14 4 10
15 15 12
16 18 18
17 15 17
18 2 10
19 19 1
20 10 20
DEMAND_SECTION
1 0
2 11
3 12
4 5
5 14
6 9
7 11
8 12
9 12
10 6
11 10
12 6
13 13
14 8
15 7
16 10
17 6
18 7
19 12
20 13
DEPOT_SECTION
1
-1
EOF
